solution status: time limit reached
objective value:                                   13
shell_j_$_88__4                                     1 	(obj:0)
shell_i_$_66                                        1 	(obj:0)
shell_j_$_131                                       1 	(obj:0)
shell_j_$_16__4                                     1 	(obj:0)
shell_i_$_86__4                                     1 	(obj:0)
shell_j_$_109                                       1 	(obj:0)
shell_j_$_96__4                                     1 	(obj:0)
shell_j_$_9__4                                      1 	(obj:0)
shell_j_$_26__4                                     1 	(obj:0)
shell_j_$_7__4                                      1 	(obj:0)
shell_j_$_5__4                                      1 	(obj:0)
shell_j_$_18__4                                     1 	(obj:0)
shell_j_$_120__4                                    1 	(obj:0)
shell_j_$_2__4                                      1 	(obj:0)
shell_i_$_110                                       1 	(obj:0)
shell_j_$_23__4                                     1 	(obj:0)
shell_j_$_98__4                                     1 	(obj:0)
shell_j_$_8__4                                      1 	(obj:0)
shell_j_$_4__4                                      1 	(obj:0)
shell_j_$_133                                       1 	(obj:0)
shell_i_$_122__4                                    1 	(obj:0)
shell_j_$_122__4                                    1 	(obj:0)
shell_i_$_102__4                                    1 	(obj:0)
shell_i_$_20__4                                     1 	(obj:0)
shell_j_thing.thing.chamber[1].thingy.r1c__4                    1 	(obj:0)
shell_j_$_115__4                                    1 	(obj:0)
shell_j_$_71                                        1 	(obj:0)
shell_j_$_123__4                                    1 	(obj:0)
shell_j_$_6__4                                      1 	(obj:0)
shell_i_$_79                                        1 	(obj:0)
shell_j_$_79                                        1 	(obj:0)
shell_j_$_125__4                                    1 	(obj:0)
shell_i_$_73                                        1 	(obj:0)
shell_i_$_107                                       1 	(obj:0)
shell_i_$_100__4                                    1 	(obj:0)
shell_j_$_148__4                                    1 	(obj:0)
shell_j_$_25__4                                     1 	(obj:0)
shell_i_$_13                                        1 	(obj:0)
shell_i_thing.thing.chamber[1].thingy.r4c__4                    1 	(obj:0)
shell_j_$_147__4                                    1 	(obj:0)
shell_j_$_15                                        1 	(obj:0)
shell_j_$_21__4                                     1 	(obj:0)
shell_i_$_101__4                                    1 	(obj:0)
shell_i_$_17__4                                     1 	(obj:0)
shell_j_$_17__4                                     1 	(obj:0)
shell_j_$_84__4                                     1 	(obj:0)
shell_j_$_105                                       1 	(obj:0)
shell_j_$_134__4                                    1 	(obj:0)
shell_j_$_143__4                                    1 	(obj:0)
shell_j_$_93__4                                     1 	(obj:0)
shell_i_$_12__4                                     1 	(obj:0)
shell_i_$_137__4                                    1 	(obj:0)
shell_j_thing.thing.chamber[0].thingy.r1c__4                    1 	(obj:0)
shell_j_thing.thing.chamber[1].thingy.r2c__4                    1 	(obj:0)
shell_i_$_10__4                                     1 	(obj:0)
shell_j_$_22__4                                     1 	(obj:0)
shell_j_$_11__4                                     1 	(obj:0)
shell_j_$_104__4                                    1 	(obj:0)
shell_j_thing.thing.chamber[2].thingy.v4__4                    1 	(obj:0)
shell_i_$_19__4                                     1 	(obj:0)
shell_j_$_19__4                                     1 	(obj:0)
shell_i_$_3__4                                      1 	(obj:0)
thing.thing.chamber[1].thingy.r1c__4_y                    6 	(obj:0)
thing.thing.chamber[1].thingy.r1c__4_z                   24 	(obj:0)
$_7__4_y                                            6 	(obj:0)
$_7__4_z                                           15 	(obj:0)
$_115__4_x                                         -1 	(obj:0)
$_115__4_y                                          6 	(obj:0)
$_115__4_z                                         23 	(obj:0)
$_66_y                                              5 	(obj:0)
$_66_z                                             20 	(obj:0)
$_71_x                                             -5 	(obj:0)
$_71_y                                              6 	(obj:0)
$_71_z                                             20 	(obj:0)
$_5__4_x                                            6 	(obj:0)
$_5__4_y                                            6 	(obj:0)
$_123__4_x                                         -1 	(obj:0)
$_123__4_y                                          6 	(obj:0)
$_123__4_z                                         20 	(obj:0)
$_5__4_z                                           22 	(obj:0)
$_86__4_x                                          -6 	(obj:0)
$_6__4_x                                           -6 	(obj:0)
$_6__4_y                                            6 	(obj:0)
$_6__4_z                                           22 	(obj:0)
$_86__4_y                                           1 	(obj:0)
$_18__4_x                                           1 	(obj:0)
$_79_x                                             -6 	(obj:0)
$_79_y                                              6 	(obj:0)
$_79_z                                             21 	(obj:0)
$_18__4_y                                           6 	(obj:0)
$_18__4_z                                          23 	(obj:0)
$_125__4_x                                         -1 	(obj:0)
$_125__4_y                                          6 	(obj:0)
$_125__4_z                                         24 	(obj:0)
$_86__4_z                                          25 	(obj:0)
$_88__4_z                                          15 	(obj:0)
$_73_x                                             -6 	(obj:0)
$_73_y                                              5 	(obj:0)
$_73_z                                             24 	(obj:0)
$_120__4_x                                         -1 	(obj:0)
$_120__4_y                                          6 	(obj:0)
$_107_x                                            -6 	(obj:0)
$_107_y                                             4 	(obj:0)
$_107_z                                            24 	(obj:0)
$_120__4_z                                         17 	(obj:0)
$_88__4_x                                           2 	(obj:0)
$_100__4_x                                         -6 	(obj:0)
$_100__4_y                                          3 	(obj:0)
$_100__4_z                                         24 	(obj:0)
$_109_x                                            -5 	(obj:0)
$_2__4_x                                           -6 	(obj:0)
$_148__4_x                                          6 	(obj:0)
$_148__4_y                                          6 	(obj:0)
$_148__4_z                                         25 	(obj:0)
$_2__4_y                                            6 	(obj:0)
$_2__4_z                                           17 	(obj:0)
$_25__4_x                                          -6 	(obj:0)
$_25__4_y                                           6 	(obj:0)
$_25__4_z                                          20 	(obj:0)
$_109_y                                             6 	(obj:0)
$_109_z                                            24 	(obj:0)
$_13_x                                             -6 	(obj:0)
$_13_y                                              4 	(obj:0)
$_13_z                                             22 	(obj:0)
$_110_x                                            -6 	(obj:0)
$_110_y                                             2 	(obj:0)
thing.thing.chamber[1].thingy.r4c__4_x                   -6 	(obj:0)
thing.thing.chamber[1].thingy.r4c__4_y                    5 	(obj:0)
thing.thing.chamber[1].thingy.r4c__4_z                   25 	(obj:0)
$_110_z                                            24 	(obj:0)
$_131_x                                            -5 	(obj:0)
$_147__4_x                                          6 	(obj:0)
$_147__4_y                                          6 	(obj:0)
$_147__4_z                                         23 	(obj:0)
$_131_y                                             6 	(obj:0)
$_23__4_x                                          -1 	(obj:0)
$_15_x                                             -3 	(obj:0)
$_15_y                                              6 	(obj:0)
$_15_z                                             25 	(obj:0)
$_23__4_y                                           6 	(obj:0)
$_23__4_z                                          15 	(obj:0)
$_21__4_x                                          -1 	(obj:0)
$_21__4_y                                           6 	(obj:0)
$_21__4_z                                          25 	(obj:0)
$_96__4_y                                           6 	(obj:0)
$_101__4_x                                         -6 	(obj:0)
$_101__4_y                                          4 	(obj:0)
$_101__4_z                                         25 	(obj:0)
$_98__4_x                                           6 	(obj:0)
$_98__4_y                                           6 	(obj:0)
$_17__4_x                                          -6 	(obj:0)
$_17__4_y                                           6 	(obj:0)
$_17__4_z                                          23 	(obj:0)
$_98__4_z                                          19 	(obj:0)
$_96__4_z                                          20 	(obj:0)
$_84__4_x                                          -2 	(obj:0)
$_84__4_y                                           6 	(obj:0)
$_84__4_z                                          25 	(obj:0)
$_131_z                                            25 	(obj:0)
$_8__4_x                                            1 	(obj:0)
$_105_x                                            -6 	(obj:0)
$_105_y                                             6 	(obj:0)
$_105_z                                            24 	(obj:0)
$_8__4_y                                            6 	(obj:0)
$_8__4_z                                           19 	(obj:0)
$_134__4_x                                         -6 	(obj:0)
$_134__4_y                                          6 	(obj:0)
$_134__4_z                                         25 	(obj:0)
$_88__4_y                                           6 	(obj:0)
$_9__4_x                                            6 	(obj:0)
$_143__4_y                                          6 	(obj:0)
$_143__4_z                                         22 	(obj:0)
$_4__4_y                                            6 	(obj:0)
$_93__4_x                                           1 	(obj:0)
$_93__4_y                                           6 	(obj:0)
$_93__4_z                                          15 	(obj:0)
$_4__4_z                                           24 	(obj:0)
$_9__4_y                                            6 	(obj:0)
$_12__4_x                                           6 	(obj:0)
$_12__4_z                                          20 	(obj:0)
$_9__4_z                                           14 	(obj:0)
$_133_x                                            -5 	(obj:0)
$_137__4_x                                         -6 	(obj:0)
$_137__4_y                                          3 	(obj:0)
$_137__4_z                                         25 	(obj:0)
$_133_y                                             6 	(obj:0)
$_133_z                                            22 	(obj:0)
thing.thing.chamber[0].thingy.r1c__4_x                   -4 	(obj:0)
thing.thing.chamber[0].thingy.r1c__4_y                    6 	(obj:0)
thing.thing.chamber[0].thingy.r1c__4_z                   25 	(obj:0)
$_66_x                                             -6 	(obj:0)
$_16__4_x                                           1 	(obj:0)
thing.thing.chamber[1].thingy.r2c__4_x                   -6 	(obj:0)
thing.thing.chamber[1].thingy.r2c__4_y                    6 	(obj:0)
thing.thing.chamber[1].thingy.r2c__4_z                   18 	(obj:0)
$_122__4_x                                          6 	(obj:0)
$_122__4_y                                          6 	(obj:0)
$_10__4_x                                          -6 	(obj:0)
$_10__4_z                                          25 	(obj:0)
$_122__4_z                                         20 	(obj:0)
$_22__4_x                                           2 	(obj:0)
$_22__4_y                                           6 	(obj:0)
$_22__4_z                                          17 	(obj:0)
$_26__4_y                                           6 	(obj:0)
$_102__4_x                                         -6 	(obj:0)
$_11__4_x                                           6 	(obj:0)
$_11__4_y                                           6 	(obj:0)
$_11__4_z                                          16 	(obj:0)
$_102__4_y                                          4 	(obj:0)
$_102__4_z                                         23 	(obj:0)
$_104__4_y                                          6 	(obj:0)
$_104__4_z                                         25 	(obj:0)
$_26__4_z                                          19 	(obj:0)
$_16__4_y                                           6 	(obj:0)
thing.thing.chamber[2].thingy.v4__4_x                   -6 	(obj:0)
thing.thing.chamber[2].thingy.v4__4_y                    6 	(obj:0)
thing.thing.chamber[2].thingy.v4__4_z                   19 	(obj:0)
$_20__4_x                                          -6 	(obj:0)
$_20__4_y                                           2 	(obj:0)
$_19__4_x                                           6 	(obj:0)
$_19__4_y                                           6 	(obj:0)
$_19__4_z                                          24 	(obj:0)
$_20__4_z                                          25 	(obj:0)
$_16__4_z                                          25 	(obj:0)
$_3__4_x                                           -6 	(obj:0)
$_3__4_y                                            5 	(obj:0)
$_3__4_z                                           23 	(obj:0)
$_7__4_x                                            4 	(obj:0)
thing.thing.chamber[1].thingy.r1c__4_x                   -4 	(obj:0)
x295                                                1 	(obj:1)
x306                                                1 	(obj:1)
x334                                                2 	(obj:1)
x348                                                1 	(obj:1)
x351                                                1 	(obj:1)
x385                                                1 	(obj:1)
x391                                                3 	(obj:1)
x401                                                2 	(obj:1)
x470                                                1 	(obj:1)
